; benchmark generated from python API
(set-info :status unknown)
(declare-fun S_1 () Real)
(declare-fun S_3 () Real)
(declare-fun L_4 () Real)
(declare-fun A_4 () Real)
(declare-fun S_5 () Real)
(declare-fun S_0 () Real)
(declare-fun L_0 () Real)
(declare-fun A_0 () Real)
(declare-fun A_1 () Real)
(declare-fun L_1 () Real)
(declare-fun A_5 () Real)
(declare-fun S_4 () Real)
(declare-fun S_2 () Real)
(declare-fun L_2 () Real)
(declare-fun A_2 () Real)
(declare-fun L_3 () Real)
(declare-fun A_3 () Real)
(assert
 (let (($x4252 (<= (+ (* (- 1.0) A_0) (* (- 1.0) S_3) (* 2.0 S_1) L_0) 0.0)))
 (let (($x39 (>= L_0 0.0)))
 (let (($x58338 (<= (+ S_5 (* (- 1.0) A_4) L_4 (* (- (/ 1.0 2.0)) S_3) (* (/ 1.0 2.0) S_0)) 0.0)))
 (let ((?x3522 (* 3.0 L_4)))
 (let ((?x10737 (* (- 3.0) S_3)))
 (let ((?x2740 (* (- 3.0) A_4)))
 (let ((?x1203 (* 3.0 A_1)))
 (let ((?x1254 (* (- 3.0) L_1)))
 (let ((?x10829 (* 3.0 S_5)))
 (let (($x29564 (<= (+ ?x10829 ?x1254 ?x1203 ?x2740 ?x10737 ?x3522) 0.0)))
 (let ((?x442 (* (- 1.0) A_4)))
 (let ((?x8796 (* (- (/ 1.0 2.0)) S_4)))
 (let ((?x9969 (* (/ 1.0 2.0) A_1)))
 (let ((?x15952 (* (- (/ 1.0 2.0)) L_1)))
 (let (($x139623 (or (<= (+ S_5 (* (- (/ 1.0 3.0)) S_4) ?x442 L_4 (* (/ 1.0 3.0) S_0)) 0.0) (<= (+ S_5 ?x15952 ?x9969 ?x8796 ?x442 L_4) 0.0))))
 (let (($x69246 (<= 0.0 (+ L_1 (* (- 1.0) A_1) S_2))))
 (let (($x989 (<= (+ (* (- 1.0) S_5) A_4 (* (- 1.0) L_4)) 0.0)))
 (let (($x67727 (or $x989 (<= (+ (* (- (/ 2.0 3.0)) S_5) (* (/ 5.0 3.0) S_1) (* (- 1.0) S_0)) 0.0))))
 (let (($x141261 (or (<= (+ S_4 (* (- 2.0) S_3) S_0) 0.0) (<= (+ (* (- 2.0) L_1) (* 2.0 A_1) S_4 ?x10737) 0.0))))
 (let ((?x3544 (* 5.0 L_4)))
 (let ((?x1853 (* (- 2.0) S_0)))
 (let ((?x3420 (* (- 5.0) A_4)))
 (let ((?x5404 (* (- 5.0) L_2)))
 (let ((?x14447 (* 5.0 A_2)))
 (let ((?x1684 (* 2.0 S_4)))
 (let (($x86 (= L_4 L_3)))
 (let ((?x3532 (* 6.0 L_4)))
 (let ((?x3538 (* (- 6.0) A_4)))
 (let ((?x5717 (* (- 6.0) L_2)))
 (let ((?x15272 (* 6.0 A_2)))
 (let ((?x1876 (* 2.0 S_5)))
 (let (($x10621 (<= (+ A_2 (* (- 1.0) L_2) ?x442 S_2 (* (- 1.0) S_1) L_4) 0.0)))
 (let ((?x4557 (* (/ 3.0 2.0) L_4)))
 (let ((?x401 (* (- 1.0) S_1)))
 (let ((?x15236 (* (- (/ 3.0 2.0)) A_4)))
 (let ((?x15571 (* (- (/ 3.0 2.0)) L_2)))
 (let ((?x15214 (* (/ 3.0 2.0) A_2)))
 (let ((?x2347 (* 4.0 L_4)))
 (let ((?x1694 (* 2.0 S_3)))
 (let ((?x3513 (* (- 4.0) A_4)))
 (let ((?x5731 (* (- 4.0) L_2)))
 (let ((?x15288 (* 4.0 A_2)))
 (let (($x16064 (<= (+ S_5 (* 5.0 L_3) (* (- 5.0) A_3) ?x14447 ?x5404 ?x401) 0.0)))
 (let (($x76 (= L_3 L_2)))
 (let ((?x1718 (* 2.0 L_4)))
 (let ((?x3213 (* 2.0 S_1)))
 (let ((?x1717 (* (- 2.0) A_4)))
 (let ((?x1182 (* (- 2.0) L_2)))
 (let ((?x1230 (* 2.0 A_2)))
 (let (($x24536 (<= (+ (* (- 2.0) L_3) (* 2.0 A_3) ?x1717 S_2 ?x401 ?x1718) 0.0)))
 (let ((?x414 (* (- 1.0) S_3)))
 (let ((?x436 (* (- 1.0) A_2)))
 (let ((?x276 (* (- 1.0) L_1)))
 (let ((?x310 (* (- 1.0) L_3)))
 (let ((?x1184 (* 2.0 L_2)))
 (let ((?x1020 (* (- 2.0) A_2)))
 (let ((?x3008 (* 2.0 A_3)))
 (let ((?x3009 (* (- 2.0) L_3)))
 (let (($x66 (= L_2 L_1)))
 (let (($x140469 (or $x66 (<= (+ ?x3009 ?x3008 ?x1020 ?x1184 ?x414 S_0) 0.0) (<= (+ ?x310 A_3 ?x276 A_1 ?x436 L_2 ?x414) 0.0))))
 (let ((?x1300 (* (- 1.0) S_0)))
 (let ((?x3118 (* 4.0 A_3)))
 (let ((?x3515 (* (- 4.0) L_3)))
 (let (($x20294 (<= (+ (* (- 3.0) L_3) (* 3.0 A_3) ?x2740 S_3 ?x401 ?x3522) 0.0)))
 (let ((?x4592 (* (/ 1.0 2.0) L_4)))
 (let ((?x1334 (* (- 1.0) A_0)))
 (let ((?x11305 (* (- (/ 1.0 2.0)) A_4)))
 (let ((?x15591 (* (- (/ 1.0 2.0)) L_2)))
 (let ((?x12424 (* (/ 1.0 2.0) A_2)))
 (let ((?x14844 (* (/ 5.0 2.0) L_4)))
 (let ((?x15585 (* (- (/ 5.0 2.0)) A_4)))
 (let ((?x14457 (* (- (/ 5.0 2.0)) L_2)))
 (let ((?x15587 (* (/ 5.0 2.0) A_2)))
 (let ((?x3519 (* (- 3.0) L_4)))
 (let ((?x3518 (* 3.0 A_4)))
 (let ((?x1197 (* 3.0 L_2)))
 (let ((?x1249 (* (- 3.0) A_2)))
 (let ((?x1065 (* 2.0 A_1)))
 (let ((?x1178 (* (- 2.0) L_1)))
 (let ((?x1688 (* (- 2.0) S_5)))
 (let ((?x1830 (* (- 2.0) L_4)))
 (let ((?x1741 (* 2.0 A_4)))
 (let ((?x428 (* (- 1.0) S_5)))
 (let (($x140185 (or $x66 (<= (+ ?x428 ?x1020 ?x1184 ?x1741 S_0 ?x1830) 0.0) (<= (+ ?x1688 ?x1178 ?x1065 ?x1249 ?x1197 ?x3518 ?x3519) 0.0))))
 (let ((?x4586 (* (- (/ 1.0 2.0)) L_4)))
 (let ((?x15233 (* (/ 1.0 2.0) A_4)))
 (let ((?x15063 (* (/ 1.0 2.0) L_2)))
 (let ((?x15256 (* (- (/ 1.0 2.0)) A_2)))
 (let (($x2481 (<= (+ S_5 (* (- 5.0) L_3) (* 5.0 A_3) ?x3420 ?x1334 ?x3544 L_0) 0.0)))
 (let (($x67426 (<= (- 5.0) (+ L_1 (* (- 1.0) A_1) S_0))))
 (let (($x137007 (or (<= (+ (* (- (/ 1.0 3.0)) S_4) (* (/ 1.0 3.0) S_0)) (- 5.0)) (<= (+ ?x276 A_1 (* (- 1.0) S_4)) (- 10.0)))))
 (let ((?x5789 (* 5.0 L_2)))
 (let ((?x15904 (* (- 5.0) A_2)))
 (let ((?x2666 (* 5.0 A_1)))
 (let ((?x2936 (* (- 5.0) L_1)))
 (let (($x15479 (<= (+ S_5 (* 6.0 L_3) (* (- 6.0) A_3) ?x15272 ?x5717 ?x1300) 0.0)))
 (let (($x16184 (<= (+ S_5 (* 5.0 L_3) (* (- 5.0) A_3) ?x14447 ?x5404 ?x1334 L_0) 0.0)))
 (let (($x18530 (<= (+ (* (- (/ 1.0 3.0)) S_5) (* (/ 2.0 3.0) L_1) (* (- (/ 2.0 3.0)) A_1) S_2) 0.0)))
 (let (($x75568 (or $x86 (<= (+ ?x310 A_3 L_1 (* (- 1.0) A_1) ?x442 S_2 L_4) 0.0))))
 (let ((?x27792 (* 6.0 L_2)))
 (let ((?x27860 (* (- 6.0) A_2)))
 (let ((?x29541 (* 6.0 A_1)))
 (let ((?x29532 (* (- 6.0) L_1)))
 (let ((?x1690 (* (- 2.0) S_3)))
 (let ((?x1687 (* (- 3.0) A_3)))
 (let ((?x1673 (* 3.0 L_3)))
 (let ((?x1316 (* 4.0 L_2)))
 (let ((?x1315 (* (- 4.0) A_2)))
 (let ((?x12248 (* 4.0 A_1)))
 (let ((?x12252 (* (- 4.0) L_1)))
 (let ((?x4319 (* 3.0 L_0)))
 (let ((?x4321 (* (- 3.0) A_0)))
 (let ((?x8135 (* 3.0 S_4)))
 (let (($x22198 (<= (+ (* 2.0 L_3) (* (- 2.0) A_3) ?x1230 ?x1182 S_2 ?x401) 0.0)))
 (let (($x56 (= L_1 L_0)))
 (let (($x2296 (not $x56)))
 (let (($x139766 (or $x86 $x2296 (<= (+ S_5 ?x1065 ?x1717 ?x1300 ?x1718 (* (- 2.0) L_0)) 0.0))))
 (let ((?x2840 (* (- (/ 2.0 3.0)) L_0)))
 (let ((?x2855 (* (/ 2.0 3.0) L_4)))
 (let ((?x2838 (* (- (/ 2.0 3.0)) A_4)))
 (let ((?x421 (* (- 1.0) S_4)))
 (let ((?x2853 (* (/ 2.0 3.0) A_1)))
 (let (($x13468 (<= (+ ?x1254 ?x1203 ?x2740 (* 3.0 S_3) (* (- 3.0) S_1) ?x3522) 0.0)))
 (let ((?x1675 (* (- 2.0) S_1)))
 (let ((?x1665 (* 2.0 S_2)))
 (let ((?x1710 (* (- 2.0) A_3)))
 (let ((?x1709 (* 2.0 L_3)))
 (let ((?x34543 (+ (* (- (/ 3.0 2.0)) L_3) (* (/ 3.0 2.0) A_3) (* (/ 3.0 2.0) L_1) (* (- (/ 3.0 2.0)) A_1) ?x421 S_0)))
 (let ((?x293 (* (- 1.0) L_2)))
 (let ((?x434 (* (- 1.0) A_1)))
 (let (($x2468 (<= (+ A_3 L_1 ?x434 (* (- (/ 2.0 3.0)) S_4) ?x293 (* (/ 2.0 3.0) S_0)) 0.0)))
 (let (($x1934 (not $x76)))
 (let (($x9537 (<= (+ ?x1178 ?x1065 ?x1717 (* 3.0 S_2) (* (- 3.0) S_1) ?x1718) 0.0)))
 (let ((?x6478 (* 3.0 S_0)))
 (let ((?x1186 (* (- 2.0) A_1)))
 (let ((?x1234 (* 2.0 L_1)))
 (let (($x140988 (or (<= (+ (* (/ 3.0 5.0) S_5) ?x421 (* (/ 2.0 5.0) S_0)) 0.0) (<= (+ (* (/ 1.0 2.0) S_5) ?x15952 ?x9969 ?x421) 0.0))))
 (let (($x3548 (<= (+ S_5 (* (- 5.0) L_3) (* 5.0 A_3) ?x3420 ?x401 ?x3544) 0.0)))
 (let (($x14872 (<= (+ (* (- 3.0) L_3) (* 3.0 A_3) ?x421 ?x1249 ?x1197 S_0) 0.0)))
 (let (($x78904 (or $x76 (<= (+ ?x1673 ?x1687 ?x421 ?x3518 S_0 ?x3519) 0.0) (<= (+ ?x1709 ?x1710 ?x276 A_1 ?x421 ?x1741 ?x1830) 0.0))))
 (let (($x140610 (or $x989 (<= (+ (* (- 3.0) S_5) ?x1334 (* 4.0 S_3) L_0) 0.0))))
 (let (($x16192 (<= (+ S_5 ?x1673 ?x1687 (* 3.0 A_2) (* (- 3.0) L_2) ?x414) 0.0)))
 (let (($x137090 (or $x76 (<= (+ L_3 (* (- 1.0) A_3) L_1 ?x434 A_2 ?x293 S_2) 0.0))))
 (let ((?x2885 (* (/ 4.0 3.0) L_4)))
 (let ((?x2884 (* (- (/ 4.0 3.0)) A_4)))
 (let ((?x2883 (* (/ 4.0 3.0) A_1)))
 (let (($x139414 (or $x86 $x2296 (<= (+ ?x2883 S_4 ?x2884 ?x1334 ?x2885 (* (- (/ 1.0 3.0)) L_0)) 0.0))))
 (let (($x139624 (or $x989 (<= (+ (* (- (/ 1.0 3.0)) S_5) ?x1334 (* (/ 4.0 3.0) S_1) L_0) 0.0))))
 (let ((?x407 (* (- 1.0) S_2)))
 (let ((?x7946 (* (- (/ 1.0 2.0)) A_1)))
 (let ((?x15953 (* (/ 1.0 2.0) L_1)))
 (let ((?x4590 (* (/ 1.0 2.0) A_3)))
 (let ((?x4589 (* (- (/ 1.0 2.0)) L_3)))
 (let (($x25377 (<= (+ ?x1673 ?x1687 (* 3.0 A_2) (* (- 3.0) L_2) S_3 ?x401) 0.0)))
 (let ((?x2846 (* (- (/ 1.0 3.0)) L_4)))
 (let ((?x2821 (* (/ 1.0 3.0) A_4)))
 (let ((?x2815 (* (- (/ 1.0 3.0)) A_1)))
 (let ((?x10710 (* (/ 1.0 3.0) L_1)))
 (let (($x13517 (<= (+ ?x428 ?x10710 ?x2815 ?x2821 S_3 ?x2846) 0.0)))
 (let (($x12224 (<= (+ ?x1178 ?x1065 ?x1717 (* 3.0 S_1) (* (- 3.0) S_0) ?x1718) 0.0)))
 (let ((?x4549 (* (- (/ 3.0 2.0)) L_4)))
 (let ((?x15255 (* (/ 3.0 2.0) A_4)))
 (let ((?x15575 (* (/ 3.0 2.0) L_2)))
 (let ((?x14233 (* (- (/ 3.0 2.0)) A_2)))
 (let (($x19750 (<= (+ S_5 (* 4.0 L_3) (* (- 4.0) A_3) L_1 ?x434 ?x15288 ?x5731) 0.0)))
 (let (($x14964 (<= (+ S_5 (* 4.0 L_3) (* (- 4.0) A_3) ?x15288 ?x5731 ?x407) 0.0)))
 (let (($x30947 (<= (+ (* (/ 1.0 2.0) S_5) (* (- (/ 3.0 2.0)) L_1) (* (/ 3.0 2.0) A_1) ?x1690) 0.0)))
 (let (($x136657 (or $x86 (<= (+ S_5 (* (- (/ 4.0 3.0)) L_1) ?x2883 ?x2884 ?x407 ?x2885) 0.0))))
 (let (($x141135 (or $x66 (<= (+ ?x1178 ?x1065 ?x436 L_2 A_4 ?x1690 (* (- 1.0) L_4)) 0.0) (<= (+ ?x436 L_2 A_4 ?x414 S_0 (* (- 1.0) L_4)) 0.0))))
 (let (($x19070 (<= (+ L_3 (* (- 1.0) A_3) ?x276 A_1 A_4 ?x414 (* (- 1.0) L_4)) 0.0)))
 (let (($x138417 (or $x76 (<= (+ L_3 (* (- 1.0) A_3) ?x276 A_1 S_1 ?x1300) 0.0))))
 (let (($x1739 (<= (+ ?x1673 ?x1687 ?x1254 ?x1203 (* (- 2.0) A_0) ?x1694 (* 2.0 L_0)) 0.0)))
 (let (($x76157 (or $x76 (<= (+ L_3 (* (- 1.0) A_3) A_2 ?x293 ?x1334 S_1 L_0) 0.0))))
 (let (($x39801 (<= (+ ?x1673 ?x1687 (* 3.0 A_2) (* (- 3.0) L_2) S_2 ?x1300) 0.0)))
 (let (($x23689 (<= (+ ?x1673 ?x1687 (* 3.0 A_2) (* (- 3.0) L_2) ?x1334 S_3 L_0) 0.0)))
 (let (($x26715 (<= (+ (* 4.0 L_3) (* (- 4.0) A_3) ?x15288 ?x5731 S_3 ?x1300) 0.0)))
 (let (($x29243 (<= (+ ?x428 (* 4.0 L_1) (* (- 4.0) A_1) ?x15288 ?x5731 S_0) 0.0)))
 (let ((?x327 (* (- 1.0) L_4)))
 (let ((?x1706 (* 2.0 S_0)))
 (let ((?x1866 (* (- 2.0) S_2)))
 (let (($x140553 (or $x989 (not $x67426) (<= (+ (* (- (/ 1.0 3.0)) S_5) (* (- (/ 1.0 3.0)) L_1) (* (/ 1.0 3.0) A_1)) (- 5.0)))))
 (let (($x3534 (<= (+ S_5 (* (- 6.0) L_3) (* 6.0 A_3) ?x3538 ?x1300 ?x3532) 0.0)))
 (let (($x139346 (or $x86 (<= (+ ?x276 A_1 ?x442 ?x4321 (* 3.0 S_1) L_4 ?x4319) 0.0))))
 (let ((?x7936 (* (/ 3.0 2.0) A_1)))
 (let ((?x15947 (* (- (/ 3.0 2.0)) L_1)))
 (let ((?x4577 (* (- (/ 3.0 2.0)) A_3)))
 (let ((?x4579 (* (/ 3.0 2.0) L_3)))
 (let (($x138469 (or $x86 (<= (+ ?x1254 ?x1203 ?x2740 ?x4321 (* 3.0 S_3) ?x3522 ?x4319) 0.0))))
 (let (($x13480 (<= (+ ?x12252 ?x12248 ?x3513 (* 3.0 S_3) (* (- 3.0) S_0) ?x2347) 0.0)))
 (let ((?x2891 (* (- (/ 4.0 3.0)) L_4)))
 (let ((?x2890 (* (/ 4.0 3.0) A_4)))
 (let ((?x2889 (* (- (/ 4.0 3.0)) A_1)))
 (let (($x142077 (or $x56 (<= (+ ?x428 (* (/ 4.0 3.0) L_1) ?x2889 ?x2890 S_0 ?x2891) 0.0))))
 (let ((?x2872 (* (- (/ 2.0 3.0)) A_1)))
 (let ((?x10832 (* (/ 2.0 3.0) L_1)))
 (let (($x10830 (<= (+ ?x428 ?x10832 ?x2872 (* (/ 2.0 3.0) A_4) S_2 (* (- (/ 2.0 3.0)) L_4)) 0.0)))
 (let (($x10838 (<= (+ ?x1254 ?x1203 ?x2740 (* 3.0 S_2) (* (- 3.0) S_0) ?x3522) 0.0)))
 (let (($x138343 (or $x76 (<= (+ S_5 L_3 (* (- 1.0) A_3) ?x276 A_1 ?x421) 0.0))))
 (let (($x3105 (<= (+ ?x1876 (* 5.0 L_3) (* (- 5.0) A_3) ?x2936 ?x2666 ?x1675) 0.0)))
 (let ((?x1737 (* 2.0 L_0)))
 (let ((?x1736 (* (- 2.0) A_0)))
 (let ((?x2757 (* (- 5.0) A_3)))
 (let ((?x2092 (* 5.0 L_3)))
 (let (($x141671 (or $x76 (<= (+ L_3 (* (- 1.0) A_3) ?x276 A_1 ?x1736 ?x3213 ?x1737) 0.0))))
 (let (($x72252 (or (<= (+ (* (- (/ 1.0 2.0)) S_3) (* (/ 1.0 2.0) S_0)) (- 5.0)) (<= (+ ?x276 A_1 ?x414) (- 5.0)))))
 (let ((?x916 (+ L_1 ?x293)))
 (let (($x62029 (<= 0.0 ?x916)))
 (let (($x63081 (not $x62029)))
 (let (($x137500 (or $x86 (<= (+ (* (- (/ 2.0 3.0)) L_1) ?x2853 ?x2838 S_3 ?x407 ?x2855) 0.0))))
 (let ((?x4827 (* (- 3.0) S_4)))
 (let ((?x1310 (* (- 3.0) A_1)))
 (let ((?x1309 (* 3.0 L_1)))
 (let (($x26851 (<= (+ (* (- 3.0) L_3) (* 3.0 A_3) ?x2740 ?x1334 S_3 ?x3522 L_0) 0.0)))
 (let (($x73496 (or $x66 (<= (+ ?x276 A_1 ?x421 ?x436 L_2 A_4 ?x327) 0.0) (<= (+ (* (- 2.0) S_4) ?x1249 ?x1197 ?x3518 ?x1706 ?x3519) 0.0))))
 (let ((?x14708 (+ A_3 ?x293 ?x442 (* (- (/ 1.0 2.0)) A_0) (* (/ 1.0 2.0) S_2) L_4 (* (/ 1.0 2.0) L_0))))
 (let (($x20104 (<= (+ (* (- 3.0) L_3) (* 3.0 A_3) ?x2740 S_2 ?x1300 ?x3522) 0.0)))
 (let (($x136914 (or $x56 (<= (+ L_1 ?x434 ?x4827 A_4 (* 3.0 S_2) ?x327) 0.0))))
 (let (($x140869 (or $x86 (<= (+ ?x1178 ?x1065 ?x1717 ?x4321 (* 3.0 S_2) ?x1718 ?x4319) 0.0))))
 (let (($x15205 (<= (+ ?x1684 (* 3.0 A_2) (* (- 3.0) L_2) ?x2740 ?x1866 ?x3522) 0.0)))
 (let (($x136997 (or $x66 (<= 0.0 (+ (* (- 1.0) A_3) L_1 ?x434 ?x1230 ?x293)) $x1934)))
 (let (($x28912 (<= (+ ?x1309 ?x1310 ?x421 (* 3.0 A_2) (* (- 3.0) L_2) S_0) 0.0)))
 (let (($x138294 (or $x76 (<= (+ L_3 (* (- 1.0) A_3) ?x421 A_4 S_2 ?x327) 0.0))))
 (let (($x11566 (<= (+ (* 3.0 A_2) (* (- 3.0) L_2) ?x2740 ?x1665 ?x1853 ?x3522) 0.0)))
 (let ((?x902 (+ L_3 ?x327)))
 (let (($x58059 (<= 0.0 ?x902)))
 (let (($x64927 (not $x58059)))
 (let (($x8789 (<= (+ ?x310 L_1 ?x434 (* (- (/ 3.0 2.0)) S_4) A_4 (* (/ 3.0 2.0) S_1)) 0.0)))
 (let (($x3134 (<= (+ S_5 (* (- 3.0) L_3) (* 3.0 A_3) ?x2740 ?x414 ?x3522) 0.0)))
 (let (($x1322 (= (+ ?x1234 ?x1186 (* 3.0 A_2) (* (- 3.0) L_2) ?x442 L_4) 0.0)))
 (let (($x20800 (<= (+ ?x428 ?x1309 ?x1310 (* 3.0 A_2) (* (- 3.0) L_2) S_1) 0.0)))
 (let (($x14095 (<= (+ (* (- (/ 2.0 3.0)) S_5) ?x310 ?x436 L_2 A_4 (* (/ 2.0 3.0) S_1)) 0.0)))
 (let (($x137452 (or $x76 (<= (+ L_3 (* (- 1.0) A_3) A_4 ?x407 S_0 ?x327) 0.0) $x69246)))
 (let (($x141860 (or $x66 $x2296 (<= (+ ?x310 A_3 A_1 ?x1020 ?x1184 (* (- 1.0) L_0)) 0.0))))
 (let (($x16324 (<= (+ ?x1234 ?x1186 ?x1684 (* 3.0 A_2) (* (- 3.0) L_2) ?x2740 ?x3522) 0.0)))
 (let (($x518 (not (<= 0.0 (+ ?x310 L_2)))))
 (let (($x77359 (or $x66 (<= (+ (* (- 2.0) S_4) ?x436 L_2 A_4 ?x1665 ?x327) 0.0))))
 (let (($x556 (<= 0.0 (+ L_3 ?x1234 ?x1186 (* 3.0 A_2) (* (- 3.0) L_2) ?x442))))
 (let ((?x2900 (* (- (/ 5.0 3.0)) L_0)))
 (let ((?x2899 (* (/ 5.0 3.0) L_4)))
 (let ((?x2898 (* (- (/ 5.0 3.0)) A_4)))
 (let ((?x2896 (* (/ 5.0 3.0) A_1)))
 (let (($x76595 (or $x56 (<= (+ L_1 ?x434 A_4 ?x10737 (* 3.0 S_1) ?x327) 0.0))))
 (let (($x600 (or $x56 $x86 (<= (+ ?x276 ?x1186 (* 3.0 A_2) ?x442 L_4) 0.0) $x63081)))
 (let (($x75538 (or $x76 $x2296 (<= (+ ?x1673 ?x1687 A_1 ?x1741 ?x1830 (* (- 1.0) L_0)) 0.0))))
 (let (($x137617 (or $x86 $x2296 (<= (+ A_1 S_4 ?x442 ?x407 L_4 (* (- 1.0) L_0)) 0.0))))
 (let (($x3188 (= (+ (* (- 3.0) L_3) (* 3.0 A_3) L_1 ?x434 ?x1717 ?x1718) 0.0)))
 (let (($x136385 (or $x56 $x76 (= (+ L_3 (* (- 1.0) A_3) L_1 ?x434 ?x1230 ?x1182) 0.0) $x62029)))
 (let (($x77825 (or $x76 (<= (+ L_3 (* (- 1.0) A_3) A_4 ?x414 S_1 ?x327) 0.0))))
 (let (($x140994 (or $x76 (<= (+ L_3 (* (- 1.0) A_3) ?x276 A_1 S_3 ?x407) 0.0))))
 (let (($x140467 (or $x56 $x76 (<= (+ L_3 (* (- 1.0) A_3) ?x276 ?x434 ?x1230) 0.0) $x63081)))
 (let (($x128 (>= S_1 S_0)))
 (let (($x131 (>= S_2 S_1)))
 (let (($x134 (>= S_3 S_2)))
 (let (($x137 (>= S_4 S_3)))
 (let (($x142 (>= A_1 A_0)))
 (let (($x144 (>= A_3 A_2)))
 (let (($x145 (>= A_4 A_3)))
 (let (($x146 (>= A_5 A_4)))
 (and (<= (+ A_3 ?x310) S_5) (<= (+ A_1 ?x276) S_4) $x146 $x145 $x144 $x142 $x137 $x134 $x131 $x128 (or $x63081 $x66) (or $x56 (not (<= 0.0 (+ ?x276 L_0)))) (or $x518 $x76) (<= (+ ?x421 S_2) (- 5.0)) (or $x66 (<= (+ ?x276 A_1 ?x436 L_2) (- 5.0))) (or $x66 (<= (+ ?x1254 ?x1203 ?x1249 ?x1197 S_2 ?x1300) 0.0)) $x140467 $x140994 (or $x56 (<= (+ ?x310 A_3 L_1 ?x434 ?x421 S_1) 0.0)) $x77825 (or $x86 $x64927) (or $x86 $x518 (<= (+ A_3 ?x293 ?x442 L_4) (- 5.0))) (or $x86 (<= (+ ?x310 A_3 ?x442 L_4) (- 5.0))) $x136385 (or $x56 $x76 $x3188 $x58059) (<= (+ ?x421 S_1) (- 10.0)) (not (<= (+ A_2 ?x293) S_4)) $x137617 (or $x86 $x2296 (<= (+ A_1 ?x442 L_4 (* (- 1.0) L_0)) (- 15.0))) $x75538 (or $x76 (<= (+ L_3 ?x1687 ?x276 A_1 ?x1741) 0.0) $x64927) (or $x86 $x63081 (<= (+ ?x276 A_2 ?x442 L_4) (- 10.0))) $x600 (or $x56 (<= (+ ?x428 L_1 ?x434 A_4 S_1 ?x327) 0.0)) $x76595 (or $x86 (<= (+ S_5 ?x3515 ?x3118 ?x3513 ?x407 ?x2347) 0.0)) (or $x86 $x2296 (<= (+ ?x2896 S_4 ?x2898 ?x1300 ?x2899 ?x2900) 0.0)) (or (<= 0.0 (+ ?x276 L_0)) $x1322 $x58059 $x62029) (<= (+ (* (/ 1.0 2.0) S_5) ?x421 (* (/ 1.0 2.0) S_1)) 0.0) (or $x66 $x556 $x64927) $x77359 (or $x86 (<= (+ S_5 ?x15214 ?x15571 ?x15236 ?x414 ?x4557) 0.0)) (or $x66 $x86 $x518 (<= (+ ?x3008 ?x436 ?x293 ?x442 L_4) 0.0)) (or $x86 $x16324) (or $x86 (<= (+ S_4 ?x1230 ?x1182 ?x1717 ?x1334 ?x1718 L_0) 0.0)) (or $x86 (<= (+ S_4 ?x1230 ?x1182 ?x1717 ?x401 ?x1718) 0.0)) (or $x76 (<= (+ ?x1709 ?x1710 ?x276 A_2 A_4 ?x327) 0.0) $x63081) (or $x86 (not $x989)) (or $x76 (<= (+ S_5 ?x1709 ?x1710 ?x421 ?x1230 ?x1182) 0.0)) $x141860 (or $x76 (= (+ ?x3009 ?x3008 ?x436 L_2 ?x442 L_4) 0.0) $x58059 $x62029) (or $x86 (<= (+ S_4 A_2 ?x293 ?x442 ?x414 L_4) 0.0)) (<= (+ (* (/ 1.0 4.0) S_5) ?x414 (* (/ 3.0 4.0) S_1)) 0.0) $x137452 (or $x66 $x14095 $x64927) (or $x76 $x64927 (<= 0.0 (+ ?x310 ?x3008 ?x436 L_2 ?x442))) (or $x66 (<= (+ (* (- 2.0) S_4) ?x1020 ?x1184 ?x1741 ?x3213 ?x1830) 0.0)) (or $x56 $x989 $x20800) (or $x66 $x1322 (not (<= 0.0 (+ ?x1178 ?x1065 ?x1249 ?x1197 A_4 ?x327)))) (or $x66 (<= (+ ?x1178 ?x1065 ?x1020 ?x1184 S_3 ?x407) 0.0)) (or $x989 (<= (+ ?x1688 (* 3.0 S_3) ?x407) 0.0)) (or $x76 (<= (+ S_5 ?x1709 ?x1710 ?x1178 ?x1065 ?x407) 0.0)) (or $x86 (<= (+ ?x310 A_3 ?x442 ?x1334 S_1 L_4 L_0) 0.0)) (or $x86 $x3134) (or $x989 (<= (+ (* (- (/ 3.0 2.0)) S_5) (* (/ 5.0 2.0) S_2) ?x1300) 0.0)) (or $x989 (<= (+ (* (- (/ 2.0 3.0)) S_5) ?x10710 ?x2815 S_3) 0.0)) (or $x989 (<= (+ ?x428 ?x1334 ?x1665 L_0) 0.0)) (or $x989 (<= (+ ?x428 ?x1665 ?x401) 0.0)) (or $x56 (<= (+ L_1 ?x434 ?x421 A_2 ?x293 S_2) 0.0)) (<= (+ ?x421 (* (/ 4.0 3.0) S_2) (* (- (/ 1.0 3.0)) S_0)) 0.0) (<= (+ (* (- 2.0) S_4) ?x1334 (* 3.0 S_2) L_0) 0.0) (or $x76 (<= (+ L_3 (* (- 1.0) A_3) ?x276 A_1) (- 10.0))) (or $x989 (<= (+ ?x428 S_3) (- 5.0))) (or $x56 $x8789 $x64927) (or $x66 (<= (+ ?x428 ?x436 L_2 A_4 S_2 ?x327) 0.0)) (or $x86 $x11566) (or $x66 (<= (+ ?x1178 ?x1065 ?x1020 ?x1184 ?x1334 S_2 L_0) 0.0)) $x138294 (or $x66 (<= (+ ?x1178 ?x1065 ?x1020 ?x1184 S_2 ?x401) 0.0)) (or $x86 (<= (+ ?x1876 (* (- 2.0) S_4) ?x1230 ?x1182 ?x1717 ?x1718) 0.0)) (<= (+ (* (/ 1.0 3.0) S_5) ?x421 (* (/ 2.0 3.0) S_2)) 0.0) (or $x86 (<= (+ A_2 ?x293 ?x442 L_4) (- 10.0))) (or $x76 (<= (+ ?x1709 ?x1710 ?x421 ?x1741 S_1 ?x1830) 0.0)) (or $x56 $x28912) $x136997 (or $x56 (<= (+ L_1 ?x434 A_2 ?x293 ?x414 S_1) 0.0)) (<= (+ (* (/ 1.0 3.0) S_4) ?x414 (* (/ 2.0 3.0) S_1)) 0.0) (or $x66 (<= (+ ?x12252 ?x12248 S_4 ?x1315 ?x1316 ?x1334 L_0) 0.0)) (or $x66 (<= (+ ?x1254 ?x1203 S_4 ?x1249 ?x1197 ?x407) 0.0)) (or $x66 (<= (+ ?x276 A_1 ?x436 L_2 ?x1334 S_1 L_0) 0.0)) (or $x86 $x15205) (or $x86 (<= (+ ?x1876 ?x15288 ?x5731 ?x3513 ?x1866 ?x2347) 0.0)) (or (<= (+ S_3 (* (- 3.0) S_2) ?x1706) 0.0) $x69246) (or $x66 $x69246 (<= (+ ?x310 A_3 ?x436 L_2 ?x407 S_0) 0.0)) (or (<= (+ (* (/ 1.0 5.0) S_5) ?x407 (* (/ 4.0 5.0) S_0)) 0.0) $x69246) (or $x86 (<= (+ ?x3009 ?x3008 ?x1717 S_3 ?x407 ?x1718) 0.0)) (or $x56 $x13517 $x58059) (or $x76 (<= (+ ?x1709 ?x1710 ?x1230 ?x1182 S_3 ?x407) 0.0)) (or $x66 (<= (+ ?x12252 ?x12248 ?x1315 ?x1316 S_3 ?x1300) 0.0)) (or $x56 (<= (+ ?x1234 ?x1186 ?x4827 ?x1741 (* 3.0 S_1) ?x1830) 0.0)) $x140869 $x136914 (or $x86 $x20104) (<= (+ ?x421 ?x3213 ?x1300) 0.0) (or $x76 (<= (+ L_3 (* (- 1.0) A_3) A_2 ?x293) (- 5.0))) (or $x86 $x1934 (<= ?x14708 0.0)) (or $x66 (<= (+ ?x3009 ?x3008 ?x421 ?x1020 ?x1184 S_1) 0.0)) (<= (+ ?x421 ?x1736 (* 3.0 S_1) ?x1737) 0.0) (or $x86 (<= (+ S_5 ?x3009 ?x3008 ?x421 ?x1717 ?x1718) 0.0)) $x73496 (or $x86 $x26851) (or $x56 (<= (+ ?x1309 ?x1310 ?x4827 ?x3518 ?x6478 ?x3519) 0.0)) (or $x66 (<= (+ S_5 ?x1178 ?x1065 ?x421 ?x1020 ?x1184) 0.0)) $x137500 (or $x86 (<= (+ L_1 ?x434 A_2 ?x293 ?x442 S_3 L_4) 0.0)) (or $x86 (<= (+ ?x3009 ?x3008 L_1 ?x434 ?x1717 S_3 ?x1718) 0.0)) (or $x66 (<= (+ ?x1178 ?x1065 ?x1020 ?x1184 S_1 ?x1300) 0.0)) (or $x56 (<= (+ ?x434 ?x8796 A_2 (* (/ 1.0 2.0) S_1)) 0.0) $x63081) (or $x76 (<= (+ ?x1709 ?x1710 ?x1178 ?x1065 ?x1736 ?x1665 ?x1737) 0.0)) (or $x989 (<= (+ ?x428 S_2) (- 10.0))) $x72252 (or $x56 (<= (+ ?x1234 ?x1186 ?x421 ?x1230 ?x1182 S_1) 0.0)) (or $x56 (<= (+ ?x1234 ?x1186 ?x1230 ?x1182 ?x414 S_0) 0.0)) (or $x86 $x29564) (or $x56 $x86 (<= 0.0 (+ ?x1673 ?x1687 ?x276 A_1 ?x1741 ?x1830))) (or $x56 (<= (+ ?x3009 ?x3008 ?x1234 ?x1186 ?x1690 ?x1706) 0.0)) (or $x86 (<= (+ ?x1178 ?x1065 ?x8135 ?x1717 ?x10737 ?x1718) 0.0)) (or $x86 (<= (+ ?x1234 ?x1186 A_2 ?x293 ?x442 ?x1665 L_4) 0.0)) (or $x56 $x989 (<= (+ ?x428 ?x1234 ?x1186 ?x1230 ?x1182 S_2) 0.0)) (or $x76 (<= (+ ?x1673 ?x1687 ?x1254 ?x1203 ?x1694 ?x1675) 0.0)) $x141671 (or $x76 (<= (+ ?x1876 ?x2092 ?x2757 ?x2936 ?x2666 ?x1736 ?x1737) 0.0)) (or $x76 $x3105) $x138343 (or $x86 $x10838) (or $x56 $x10830) $x142077 (or $x66 (<= (+ ?x15256 ?x15063 ?x15233 ?x414 S_1 ?x4586) 0.0)) (or $x56 $x989 (<= (+ ?x428 L_1 ?x434 A_2 ?x293 S_3) 0.0)) (or $x86 $x13480) $x138469 (or $x66 (<= (+ ?x1254 ?x1203 ?x1249 ?x1197 ?x1334 S_3 L_0) 0.0)) (or $x989 (<= (+ ?x428 S_1) (- 15.0))) (or $x76 (<= (+ ?x1709 ?x1710 ?x1178 ?x1065 S_3 ?x1300) 0.0)) (or $x76 (<= (+ ?x4579 ?x4577 ?x15947 ?x7936 S_2 ?x1300) 0.0)) $x139346 (or $x86 $x3534) (or $x86 (<= (+ S_5 L_1 ?x434 ?x1230 ?x1182 ?x1717 ?x1718) 0.0)) (or (<= (+ (* (/ 1.0 4.0) S_4) ?x407 (* (/ 3.0 4.0) S_0)) 0.0) $x69246) (or $x76 (<= (+ ?x1709 ?x1710 L_1 ?x434 ?x1230 ?x1182 S_3) 0.0)) $x140553 (or $x66 (<= (+ ?x436 L_2 A_4 ?x1866 ?x1706 ?x327) 0.0) $x69246) (or $x56 (<= (+ L_1 ?x434 A_2 ?x293 ?x407 S_0) 0.0)) (or $x56 $x989 $x29243) (or $x66 (<= (+ ?x310 A_3 ?x436 L_2 ?x414 S_1) 0.0)) (or $x76 $x26715) (or $x76 (<= (+ ?x1709 ?x1710 ?x1230 ?x1182 S_1 ?x1300) 0.0)) (or $x76 $x23689) (or $x76 $x39801) $x76157 (or $x76 $x1739) $x138417 (or $x76 (<= (+ ?x1709 ?x1710 ?x1230 ?x1182 ?x1334 S_2 L_0) 0.0)) (or $x76 (<= (+ ?x1709 ?x1710 ?x1741 ?x414 S_0 ?x1830) 0.0) $x19070) $x141135 (or $x86 (<= (+ ?x276 A_1 S_4 ?x442 ?x407 L_4) 0.0)) $x136657 (or $x86 (<= (+ S_5 ?x3515 ?x3118 L_1 ?x434 ?x3513 ?x2347) 0.0)) (or (<= (+ (* (/ 2.0 5.0) S_5) ?x414 (* (/ 3.0 5.0) S_0)) 0.0) $x30947) (or $x76 $x14964) (or $x76 $x19750) (or $x66 (<= (+ ?x428 ?x14233 ?x15575 ?x15255 S_1 ?x4549) 0.0)) (or $x66 (<= (+ S_5 ?x12252 ?x12248 ?x1315 ?x1316 ?x407) 0.0)) (or $x86 (<= (+ ?x276 A_1 ?x442 L_4) (- 15.0))) (or $x66 (<= (+ ?x310 A_3 ?x421 ?x436 L_2 S_2) 0.0)) (or $x66 (<= (+ S_5 ?x2936 ?x2666 ?x15904 ?x5789 ?x1334 L_0) 0.0)) (or $x76 (<= (+ S_5 ?x1673 ?x1687 ?x1254 ?x1203 ?x1300) 0.0)) (or $x66 (<= (+ ?x1254 ?x1203 ?x1249 ?x1197 S_3 ?x401) 0.0)) (or $x86 (<= (+ ?x2936 ?x2666 ?x8135 ?x3420 (* (- 3.0) S_0) ?x3544) 0.0)) (or $x56 (<= (+ ?x10710 ?x2815 ?x2821 ?x407 S_0 ?x2846) 0.0)) (or $x86 $x12224) (or $x56 $x989 $x13517) (or $x989 (<= (+ (* (- 3.0) S_5) (* 4.0 S_3) ?x401) 0.0)) (or $x76 $x25377) (or $x56 (<= (+ ?x4589 ?x4590 ?x15953 ?x7946 ?x421 S_2) 0.0)) (or $x56 (<= (+ ?x310 A_3 L_1 ?x434 ?x1690 ?x3213) 0.0)) (or $x56 (<= (+ ?x4589 ?x4590 ?x15953 ?x7946 ?x407 S_0) 0.0)) $x139624 $x139414 (<= (+ ?x15953 ?x7946 ?x8796 S_2) 0.0) (or $x86 (<= (+ A_2 ?x293 ?x442 ?x1334 S_2 L_4 L_0) 0.0)) $x137090 (or $x76 $x16192) $x140610 (or $x989 (<= (+ (* (- 4.0) S_5) (* 5.0 S_3) ?x1300) 0.0)) (or $x86 (<= (+ ?x1230 ?x1182 ?x1717 ?x1694 ?x1866 ?x1718) 0.0)) $x78904 (or $x66 $x14872 (<= (+ ?x3009 ?x3008 ?x276 A_1 ?x421 ?x1020 ?x1184) 0.0)) (or $x86 $x3548) $x140988 (or $x56 (<= (+ ?x1234 ?x1186 ?x1741 ?x10737 ?x6478 ?x1830) 0.0)) (or $x86 $x9537) (or $x56 $x1934 $x2468) (or $x56 (<= ?x34543 0.0)) (or $x76 (<= (+ ?x1709 ?x1710 ?x1178 ?x1065 ?x1665 ?x1675) 0.0)) (or $x86 $x13468) (or $x86 $x2296 (<= (+ S_5 ?x2853 ?x421 ?x2838 ?x2855 ?x2840) 0.0)) (or $x66 (<= (+ S_5 ?x1254 ?x1203 ?x1249 ?x1197 ?x414) 0.0)) (or $x86 (<= (+ ?x10829 ?x2936 ?x2666 ?x3420 ?x4321 ?x3544 ?x4319) 0.0)) $x139766 (or $x76 $x22198) (or $x86 (<= (+ ?x12252 ?x12248 ?x8135 ?x3513 (* (- 3.0) S_1) ?x2347) 0.0)) (or $x86 (<= (+ ?x12252 ?x12248 ?x8135 ?x3513 ?x4321 ?x2347 ?x4319) 0.0)) (or $x86 (<= (+ ?x10829 ?x1178 ?x1065 ?x4827 ?x1717 ?x1718) 0.0)) (or $x86 (<= (+ ?x10829 ?x29532 ?x29541 ?x3538 (* (- 3.0) S_0) ?x3532) 0.0)) (or $x86 (<= (+ ?x10829 ?x2936 ?x2666 ?x3420 (* (- 3.0) S_1) ?x3544) 0.0)) (or $x66 (<= (+ ?x12252 ?x12248 S_4 ?x1315 ?x1316 ?x401) 0.0)) (or $x66 (<= (+ S_5 ?x276 A_1 ?x436 L_2 ?x442 L_4) 0.0)) (or $x66 (<= (+ ?x2936 ?x2666 S_4 ?x15904 ?x5789 ?x1300) 0.0)) (or $x66 (<= (+ ?x1178 ?x1065 S_4 ?x1020 ?x1184 ?x414) 0.0)) (or $x76 (<= (+ ?x1876 ?x1673 ?x1687 ?x1254 ?x1203 ?x1690) 0.0)) (or $x66 (<= (+ S_5 ?x29532 ?x29541 ?x27860 ?x27792 ?x1300) 0.0)) $x75568 (or $x989 $x18530) (or $x86 (<= (+ S_5 ?x15587 ?x14457 ?x15585 ?x1334 ?x14844 L_0) 0.0)) (or $x76 $x16184) (or $x76 $x15479) (or $x66 (<= (+ S_5 ?x2936 ?x2666 ?x15904 ?x5789 ?x401) 0.0)) $x137007 (or $x989 $x67426 (<= (+ ?x428 S_0) (- 20.0))) (or $x86 $x2481) (or $x86 (<= (+ ?x3009 ?x3008 ?x1717 ?x1334 S_2 ?x1718 L_0) 0.0)) (or $x86 (<= (+ ?x3009 ?x3008 ?x1717 S_1 ?x1300 ?x1718) 0.0)) (or $x66 (<= (+ ?x428 ?x15256 ?x15063 ?x15233 S_3 ?x4586) 0.0)) (or $x86 (<= (+ ?x15214 ?x15571 ?x15236 ?x1334 S_3 ?x4557 L_0) 0.0)) $x140185 (or $x86 (<= (+ S_5 ?x15587 ?x14457 ?x15585 ?x401 ?x14844) 0.0)) (or $x86 (<= (+ ?x12424 ?x15591 ?x11305 ?x1334 S_1 ?x4592 L_0) 0.0)) (or $x86 $x20294) (or $x69246 (<= (+ ?x407 S_0) (- 5.0))) (or $x86 (<= (+ ?x3515 ?x3118 ?x3513 S_3 ?x1300 ?x2347) 0.0)) (<= (+ S_5 ?x8796 ?x442 L_4 (* (/ 1.0 2.0) S_1)) 0.0) $x140469 (or $x86 $x24536) (<= (+ (* (- 2.0) S_4) (* 3.0 S_2) ?x401) 0.0) (or $x86 (<= (+ ?x1230 ?x1182 ?x1717 ?x3213 ?x1853 ?x1718) 0.0)) (<= (+ S_5 ?x421 ?x442 L_4 S_2) 0.0) (or $x76 $x16064) (or $x86 (<= (+ ?x15288 ?x5731 ?x3513 ?x1694 ?x1853 ?x2347) 0.0)) (or $x86 (<= (+ ?x15214 ?x15571 ?x15236 S_3 ?x401 ?x4557) 0.0)) (or $x86 $x10621) (or $x86 (<= (+ ?x1876 ?x15272 ?x5717 ?x3538 ?x1853 ?x3532) 0.0)) (or $x86 (<= (+ ?x1684 ?x14447 ?x5404 ?x3420 ?x1853 ?x3544) 0.0)) $x141261 $x67727 (or (<= (+ S_5 ?x442 L_4 ?x407 S_0) 0.0) $x69246) $x139623 (or $x29564 $x58338) $x39 (<= (+ S_5 (* (- 1.0) A_5) L_4) 0.0) (<= (+ ?x1334 S_0 L_0) 0.0) (<= (+ ?x414 S_1) (- 5.0)) (<= (+ L_1 ?x434 S_1) 0.0) $x4252 (<= (+ ?x414 (* (/ 3.0 2.0) S_1) (* (- (/ 1.0 2.0)) S_0)) 0.0) (<= (+ S_5 ?x442 L_4 ?x414 S_1) 0.0)))))))))))))))))))))))))))))))))))))))))))))))))))))))))))))))))))))))))))))))))))))))))))))))))))))))))))))))))))))))))))))))))))))))))))))))))))))))))))))))))))))))))))))))))))))))))))))))))))))))))))))))))))))))))))))))))))))))))))))))))))))))))))))))))))))
(check-sat)
